Route 1: 0 73 48 60 99 25 86 10 82 78 1 47 0
Route 2: 0 81 79 85 52 57 94 54 0
Route 3: 0 74 58 77 92 72 33 67 0
Route 4: 0 7 43 46 61 12 41 63 35 15 14 6 0
Route 5: 0 100 23 88 97 76 13 24 19 89 18 53 0
Route 6: 0 56 93 66 16 95 29 39 96 98 34 0
Route 7: 0 38 27 31 84 59 17 87 49 75 32 36 0
Route 8: 0 83 2 5 69 11 45 21 0
Route 9: 0 51 64 30 91 40 28 22 0
Route 10: 0 68 26 62 65 3 37 4 71 0
Route 11: 0 70 9 42 50 80 20 55 44 90 8 0
